Maximize

5 x_0 + 3 x_1 + 5 x_2 + 5 x_3 + 5 x_4 + 5 x_5 + 2 x_6 + 2 x_7 + 4 x_8 + 4 x_9 + 4 x_10 + 5 x_11 + 4 x_12 + 3 x_13 + 4 x_14 + 1 x_15 + 2 x_16 + 2 x_17 + 2 x_18 + 3 x_19


Subject To

a0: 1302.6 x_0 + 1196.3 x_1 + 1268.8 x_2 + 1779.3 x_3 + 1931.0 x_4 + 1791.8 x_5 + 1955.9 x_6 + 1723.5 x_7 + 1560.6 x_8 + 1633.2 x_9 + 1290.8 x_10 + 1396.3 x_11 + 1707.9 x_12 + 1349.4 x_13 + 1266.1 x_14 + 1479.4 x_15 + 1906.0 x_16 + 1724.2 x_17 + 1564.8 x_18 + 1021.7 x_19 <= 20566
b0: x_1 + x_3 + x_12 + x_16 + x_19 >= 1
b1: x_1 + x_3 + x_4 + x_5 + x_6 + x_8 + x_18 >= 1
b2: x_2 + x_3 + x_8 + x_15 + x_16 + x_18 >= 1
b3: x_3 + x_6 + x_8 + x_10 + x_12 + x_14 + x_19 >= 1
b4: x_1 + x_12 + x_15 + x_16 + x_18 >= 1
b5: x_1 + x_2 + x_4 + x_5 + x_9 + x_10 + x_15 >= 1
b6: x_6 + x_8 + x_12 >= 1
b7: x_3 + x_15 + x_18 >= 1
b8: x_4 + x_14 + x_19 >= 1
b9: x_0 + x_3 + x_6 + x_12 + x_15 + x_18 >= 1
b10: x_6 + x_7 + x_16 + x_19 >= 1
b11: x_1 + x_4 + x_6 + x_8 + x_15 + x_19 >= 1
b12: x_0 + x_1 + x_3 + x_4 + x_5 + x_10 + x_15 >= 1
b13: x_0 + x_1 + x_4 + x_5 + x_15 + x_16 >= 1
b14: x_6 + x_8 + x_13 + x_16 + x_17 + x_19 >= 1
b15: x_4 + x_6 + x_8 + x_11 + x_18 >= 1
c0: x_0 + x_4 <= 1
c1: x_0 + x_8 <= 1
c2: x_0 + x_18 <= 1
c3: x_1 + x_9 <= 1
c4: x_2 + x_4 <= 1
c5: x_2 + x_14 <= 1
c6: x_3 + x_9 <= 1
c7: x_4 + x_6 <= 1
c8: x_4 + x_10 <= 1
c9: x_5 + x_9 <= 1
c10: x_6 + x_13 <= 1
c11: x_7 + x_11 <= 1
c12: x_7 + x_18 <= 1
c13: x_8 + x_16 <= 1
c14: x_8 + x_17 <= 1
c15: x_9 + x_12 <= 1
c16: x_10 + x_17 <= 1
c17: x_11 + x_12 <= 1
c18: x_12 + x_15 <= 1
c19: x_15 + x_19 <= 1




Binary

x_0 x_1 x_2 x_3 x_4 x_5 x_6 x_7 x_8 x_9 x_10 x_11 x_12 x_13 x_14 x_15 x_16 x_17 x_18 x_19

 


End
